%mem=2gb
%nproc=4
%chk=conf-338.chk

B3LYP-D3(BJ)/6-311G(d,p) opt=calcfc freq=noraman nosymm integral(ultrafinegrid)

 Candidate Structure: Conf:338 OPT and FREQ calc in gas phase

0 1
 O   1.43891708   0.43624839   2.04208694
 C   1.83455017  -0.01924503   0.97910283
 N   0.99884869  -0.49738932   0.03180268
 C  -0.43896999  -0.48529046   0.22040902
 C  -1.00600698  -1.51002646  -0.73236323
 O  -1.83721880  -2.39626895  -0.15191006
 O  -0.74626170  -1.52592074  -1.91090024
 C  -0.99400941   0.91774404  -0.09473442
 C  -2.46929619   1.03315231   0.10271800
 C  -3.51664032   1.05168120  -0.77676736
 N  -4.72522317   1.13183369  -0.10608167
 C  -4.40833221   1.16398993   1.16783193
 N  -3.05677749   1.10528397   1.34777544
 C   3.31923069  -0.13884619   0.65086578
 C   3.69369434   0.20521647  -0.78484070
 N   3.16474332  -0.78791989  -1.73453540
 H   1.39882133  -0.79892039  -0.85043776
 H  -0.65377521  -0.75140438   1.25500770
 H  -2.14194823  -2.97748663  -0.86228959
 H  -0.75931256   1.15310489  -1.13095470
 H  -0.46053970   1.62352540   0.54023869
 H  -3.46138092   0.99554053  -1.85630569
 H  -5.09180932   1.23027287   1.99531822
 H  -2.56877275   1.11962645   2.22933225
 H   3.83551567   0.51704422   1.35278547
 H   3.63828119  -1.16585200   0.86407242
 H   3.27302978   1.17738306  -1.04482827
 H   4.78376050   0.30372053  -0.85047135
 H   3.68704666  -1.65305204  -1.66654414
 H   3.26977214  -0.45770114  -2.68360307




