%mem=2gb
%nproc=4
%chk=conf-609.chk

# B3LYP/6-311++G(d,p) EmpiricalDispersion=GD3BJ opt=calcfc freq=noraman nosymm integral(ultrafinegrid)

 Candidate Structure: Conf:609 OPT and FREQ calc in gas phase

0 1
 O   1.41770131   0.85748409  -0.67657062
 C   1.59436399  -0.00409567   0.17026454
 N   0.53893523  -0.70679480   0.68995518
 C  -0.76947246  -0.61446125   0.04509159
 C  -0.64826792  -1.10745622  -1.38771908
 O  -1.61878653  -0.61874007  -2.20017613
 O   0.17931527  -1.88567423  -1.77112543
 C  -1.37787010   0.79833773   0.19936740
 C  -2.85873349   0.80123867   0.37902860
 C  -3.64977419   1.26082327   1.39423371
 N  -4.98460533   1.02988228   1.11577599
 C  -4.99277749   0.43648172  -0.05264029
 N  -3.73342486   0.27218405  -0.53474182
 C   2.94924497  -0.35503466   0.76110635
 C   4.10812521   0.28615449  -0.00411620
 N   5.43796098  -0.03062869   0.50634682
 H   0.73698724  -1.56764869   1.16964061
 H  -1.39206922  -1.34935194   0.56808970
 H  -1.43623957  -0.99232979  -3.07559329
 H  -0.94482547   1.25312712   1.08785845
 H  -1.07566595   1.42914663  -0.63282450
 H  -3.34519085   1.74820621   2.30792573
 H  -5.85793369   0.10730536  -0.60023554
 H  -3.44961584  -0.14679870  -1.40521345
 H   2.96280192  -0.02719547   1.80780772
 H   3.05557963  -1.44622408   0.77465141
 H   4.05693681  -0.02323866  -1.04838946
 H   3.98105476   1.36866930   0.00485856
 H   5.59423901  -1.03198645   0.48736323
 H   5.52207512   0.25862643   1.47442916




