%mem=2gb
%nproc=4
chk=B3LYP_6-31+G(d,p)_719.chk

# B3LYP/6-31+G(d,p)  guess=read geom=checkpoint opt=readfc freq=noraman nosymm integral(ultrafinegrid)

Candidate Structure: Conf:719 OPT and FREQ calc in gas phase

1 1

 O  -0.72005390  -0.63765635   1.42407911
 C  -1.30854195  -0.35072160   0.39192624
 N  -0.64886120   0.02778927  -0.73424807
 C   0.78941775   0.22717392  -0.70360724
 C   1.13934441   1.06530503  -1.91424554
 O   2.46403684   1.31792671  -2.00858910
 O   0.34195061   1.46947309  -2.71894363
 C   1.53735664  -1.12922395  -0.66352629
 C   2.75499846  -1.09635014   0.19636130
 C   3.09564401  -1.82048706   1.30300581
 N   4.33164202  -1.42286480   1.78318436
 C   4.71835004  -0.46404916   0.97731976
 N   3.79480647  -0.22333971   0.00813224
 C  -2.81985109  -0.36212022   0.28429198
 C  -3.40988445   0.91549072   0.86784339
 N  -4.89591297   0.90763770   0.82253781
 H  -1.13698800   0.44141994  -1.51384479
 H   1.02385123   0.80440498   0.19829035
 H   2.57954343   1.86671956  -2.79946707
 H   0.86205516  -1.86744360  -0.23473867
 H   1.76766456  -1.46080383  -1.67591332
 H   2.52687795  -2.60269389   1.78512817
 H   5.63851742   0.08928515   1.03276357
 H   3.82338248   0.47470445  -0.71798198
 H  -3.18714869  -1.21462852   0.85492394
 H  -3.13759473  -0.46910737  -0.75495564
 H  -3.04499097   1.77790667   0.30734272
 H  -3.07044994   1.02623954   1.89791108
 H  -5.27570317   0.11714368   1.34344522
 H  -5.29549073   1.75647939   1.22538266
 H  -5.23775013   0.83644671  -0.13609705

