%mem=2gb
%nproc=4
chk=B3LYP_6-31G(d)_580.chk

# B3LYP/6-31G(d) EmpiricalDispersion=GD3BJ opt=calcfc freq=noraman nosymm integral(ultrafinegrid)

Candidate Structure: Conf:580 OPT and FREQ calc in gas phase

1 1
 O   1.16260287   0.47867099  -1.24083138
 C   1.43061570   0.39643400  -0.04924108
 N   0.44893181   0.32096544   0.88845632
 C  -0.95542324   0.32737267   0.51041352
 C  -1.72354492   0.76875136   1.73532578
 O  -2.59502923   1.76808437   1.49955283
 O  -1.57563343   0.26700522   2.82236883
 C  -1.39558437  -1.08540720   0.07214405
 C  -2.82699816  -1.16160250  -0.34836862
 C  -3.94650881  -1.63385383   0.27998697
 N  -5.07043116  -1.45394112  -0.50815230
 C  -4.63103767  -0.88057224  -1.60483278
 N  -3.28184089  -0.68161235  -1.55820711
 C   2.85113128   0.35725890   0.49446366
 C   3.88924899   0.67518667  -0.57159973
 N   5.27509004   0.60882526  -0.03633348
 H   0.66613870   0.21414626   1.86708194
 H  -1.09214959   1.03095656  -0.31001698
 H  -3.03127801   1.94421909   2.34425650
 H  -1.24298504  -1.76764115   0.90621575
 H  -0.73868225  -1.39207198  -0.73966895
 H  -4.00148114  -2.07935149   1.26499577
 H  -5.22148624  -0.59047723  -2.45542101
 H  -2.71355600  -0.26592341  -2.27902840
 H   3.04083108  -0.64193191   0.90267249
 H   2.93715171   1.06208121   1.32717514
 H   3.77607056  -0.02889367  -1.39456627
 H   3.69767092   1.66863699  -0.97571727
 H   5.96943012   0.81982452  -0.75442488
 H   5.41211339   1.27592772   0.72291120
 H   5.48681541  -0.32091671   0.32558195

