%mem=2gb
%nproc=4
chk=B3LYP_6-31G(d,p)_301.chk

# B3LYP/6-31G(d,p) EmpiricalDispersion=GD3BJ guess=read geom=checkpoint opt=readfc freq=noraman nosymm integral(ultrafinegrid)

Candidate Structure: Conf:301 OPT and FREQ calc in gas phase

1 1

 O  -0.13881218  -0.14863982  -1.76767691
 C   0.37704326   0.73198818  -1.08591769
 N  -0.36807169   1.54339211  -0.28953879
 C  -1.69977568   1.15699058   0.11336364
 C  -2.48703391   2.41612132   0.39822692
 O  -3.81374554   2.17873903   0.40950029
 O  -2.00478181   3.49354281   0.62805624
 C  -1.71406908   0.28347440   1.39749305
 C  -0.86228844  -0.94589793   1.29263038
 C   0.37798662  -1.24596597   1.78406831
 N   0.81291817  -2.47087619   1.32067097
 C  -0.17135913  -2.92931105   0.59161557
 N  -1.20496535  -2.04884421   0.53749963
 C   1.87632071   0.99423581  -1.03538303
 C   2.70492186   0.02334851  -1.85939310
 N   2.44095486  -1.38528578  -1.47796549
 H   0.06395634   2.28835861   0.23027953
 H  -2.15378374   0.60535879  -0.70847292
 H  -4.23228388   3.02183369   0.62529546
 H  -1.34639603   0.87479072   2.23744962
 H  -2.74757503   0.01571704   1.61235861
 H   0.99944466  -0.61957323   2.41457635
 H  -0.18189926  -3.87673742   0.07388008
 H  -2.04603117  -2.15825650  -0.00985909
 H   2.19195737   0.95009594   0.01524933
 H   2.05995821   2.01830188  -1.37188046
 H   2.46430528   0.15590361  -2.91485450
 H   3.76405996   0.25219797  -1.73144600
 H   3.06624173  -2.03948018  -1.94956259
 H   1.47922685  -1.59913972  -1.75806717
 H   2.49376745  -1.53679856  -0.46652075

