%mem=2gb
%nproc=4
%chk=conf-683.chk

# wB97XD/6-311++G(d,p) opt=calcfc freq=noraman nosymm integral(ultrafinegrid)

 Candidate Structure: Conf:683 OPT and FREQ calc in gas phase

0 1
 O  -0.48713653   0.03411337  -2.18318998
 C   0.46126791   0.27928238  -1.44051659
 N   0.32789374   0.42794607  -0.11044144
 C  -0.95780377   0.66544836   0.50157537
 C  -0.92496970   2.00030652   1.21365075
 O  -2.15886669   2.39839799   1.57874207
 O   0.07049083   2.63591376   1.45944888
 C  -1.34629352  -0.41772302   1.51388246
 C  -1.55824362  -1.78505329   0.92940944
 C  -1.80803650  -2.98089174   1.53805491
 N  -1.96661702  -3.98553904   0.60476390
 C  -1.81521526  -3.39076749  -0.55337523
 N  -1.57258939  -2.06509122  -0.41431211
 C   1.88810900   0.37371422  -1.96847930
 C   2.67073936   1.56211126  -1.40789564
 N   2.95916980   1.38591789   0.02670854
 H   1.16423408   0.73916444   0.38089348
 H  -1.71050520   0.71536994  -0.28595350
 H  -2.04427427   3.24020669   2.03676261
 H  -0.58325914  -0.47218020   2.29309021
 H  -2.26420493  -0.10000536   2.01323321
 H  -1.88609854  -3.18905855   2.59557573
 H  -1.86735452  -3.85838241  -1.52128050
 H  -1.36912179  -1.41053133  -1.15987761
 H   2.42577269  -0.54794902  -1.71986325
 H   1.81066765   0.43449909  -3.05413823
 H   2.07237792   2.46847598  -1.52499030
 H   3.58337286   1.70483381  -1.99529696
 H   3.80746293   0.85703465   0.17254262
 H   3.07912761   2.28042574   0.48106187




