%mem=2gb
%nproc=4
chk=B3LYP_6-311++G2df2pd_214.chk

# B3LYP/6-311++G(2df,2pd)  guess=read geom=checkpoint opt=readfc freq=noraman nosymm integral(ultrafinegrid)

Candidate Structure: Conf:214 OPT and FREQ calc in gas phase

1 1

 O  -1.04959573  -0.53170603  -1.26429245
 C  -1.10934624  -0.17362331  -0.09273587
 N  -0.07815075  -0.35767279   0.78572758
 C   1.02197202  -1.24122917   0.46697036
 C   0.99565081  -2.41586433   1.43874646
 O   1.65976794  -3.52101579   1.03213398
 O   0.46769971  -2.37978209   2.51492896
 C   2.39123366  -0.55399517   0.56354618
 C   2.65124616   0.44626331  -0.52716263
 C   1.96613873   0.82069776  -1.64420326
 N   2.65836023   1.78482379  -2.35483977
 C   3.75716457   1.98695151  -1.66936802
 N   3.80597755   1.20776661  -0.55842223
 C  -2.29920485   0.57825550   0.47189975
 C  -3.58897870   0.26692025  -0.27237677
 N  -4.74080982   1.03790278   0.26777682
 H  -0.28410686  -0.29029935   1.77377776
 H   0.86986725  -1.58714462  -0.55551698
 H   1.99299767  -3.39267682   0.13839295
 H   2.48575286  -0.07100891   1.53729700
 H   3.17115508  -1.32253477   0.52593808
 H   0.99862133   0.45657271  -1.94969845
 H   4.54428502   2.67546332  -1.92422246
 H   4.54554005   1.18271525   0.12319471
 H  -2.08898099   1.64808939   0.38756165
 H  -2.40749629   0.35009798   1.53438442
 H  -3.79993930  -0.79962108  -0.20381941
 H  -3.44894947   0.49930662  -1.32737360
 H  -4.57878543   2.04214952   0.19387038
 H  -5.60488378   0.83191865  -0.23547861
 H  -4.90421653   0.82238825   1.25117107

