%mem=2gb
%nproc=4
chk=B3LYP_6-311Gdp_318.chk

# B3LYP/6-311G(d,p) EmpiricalDispersion=GD3BJ guess=read geom=checkpoint opt=readfc freq=noraman nosymm integral(ultrafinegrid)

Candidate Structure: Conf:318 OPT and FREQ calc in gas phase

1 1

 O   1.13479326   0.36017237   1.71301404
 C   1.16225672  -0.24330189   0.64574179
 N   0.11395692  -1.00732535   0.23996088
 C  -1.06936428  -1.15699347   1.05769588
 C  -1.84053946  -2.36382558   0.54087564
 O  -2.80522840  -2.83052235   1.35603731
 O  -1.63336847  -2.87104026  -0.52800452
 C  -1.94159672   0.10926792   1.09445684
 C  -2.42059336   0.64013359  -0.22614799
 C  -2.81335433   0.08440369  -1.40888485
 N  -3.21509254   1.05471138  -2.30736856
 C  -3.07245025   2.19142623  -1.66780284
 N  -2.59721683   2.00042176  -0.41027435
 C   2.34258189  -0.20625328  -0.31324337
 C   3.52375617   0.56524116   0.25721858
 N   4.66862603   0.61097911  -0.69027820
 H   0.14741050  -1.55596424  -0.60599685
 H  -0.76096477  -1.33801980   2.09036882
 H  -2.82172828  -2.33986786   2.18352113
 H  -2.80031467  -0.07851948   1.74719531
 H  -1.35360933   0.88582421   1.58117899
 H  -2.82341404  -0.96001675  -1.66902206
 H  -3.29494941   3.16977513  -2.05628641
 H  -2.40027744   2.71256400   0.27364528
 H   2.02064361   0.25342271  -1.25462084
 H   2.64528204  -1.23191159  -0.54929209
 H   3.83569349   0.10072005   1.19196649
 H   3.20223527   1.57712370   0.49940901
 H   5.00063139  -0.32666942  -0.91571087
 H   5.45976575   1.12826467  -0.30454610
 H   4.40638171   1.06602151  -1.56460547

