%mem=2gb
%nproc=4
chk=B3LYP_6-311++G2df2pd_715.chk

# B3LYP/6-311++G(2df,2pd) EmpiricalDispersion=GD3BJ guess=read geom=checkpoint opt=readfc freq=noraman nosymm integral(ultrafinegrid)

Candidate Structure: Conf:715 OPT and FREQ calc in gas phase

1 1

 O  -2.08850327   1.18200103  -0.21824980
 C  -1.46719095   0.20547373   0.19925630
 N  -0.12132021   0.20757262   0.28623688
 C   0.63783134   1.29465749  -0.29198282
 C   0.98028973   1.04470060  -1.75561871
 O   1.23243673   2.14989419  -2.48334659
 O   1.08562360  -0.04757099  -2.25601526
 C   1.91546451   1.56480053   0.52717796
 C   2.70196197   0.33131477   0.85697277
 C   3.40427929  -0.01180578   1.97612619
 N   3.95687267  -1.26981172   1.84034650
 C   3.58919734  -1.67165633   0.64640656
 N   2.82177917  -0.74816978   0.01529071
 C  -2.16714622  -1.04943878   0.69627582
 C  -3.29141935  -1.47615585  -0.23790196
 N  -4.33054388  -0.42348489  -0.32038200
 H   0.38118015  -0.63739459   0.50117982
 H  -0.00933132   2.17279288  -0.24627158
 H   1.09821265   2.93527552  -1.94330853
 H   2.53317119   2.28932422  -0.01518019
 H   1.62589681   2.03759764   1.46796766
 H   3.54597011   0.56831289   2.87674578
 H   3.83587755  -2.61476501   0.19138565
 H   2.44531148  -0.82715993  -0.92241423
 H  -1.44085665  -1.85534338   0.81604494
 H  -2.58091049  -0.82550901   1.68300407
 H  -3.73536684  -2.40919237   0.11305243
 H  -2.88607839  -1.66137620  -1.23542017
 H  -3.83815649   0.47227950  -0.44803018
 H  -4.97669657  -0.56907384  -1.09526650
 H  -4.85767463  -0.35807479   0.54952941

