%mem=2gb
%nproc=4
chk=B3LYP_6-31Gd_661.chk

# B3LYP/6-31G(d) EmpiricalDispersion=GD3BJ opt=calcfc freq=noraman nosymm integral(ultrafinegrid)

Candidate Structure: Conf:661 OPT and FREQ calc in gas phase

1 1
 O   1.32422991   1.81348919   0.54009785
 C   1.12207420   1.00651472  -0.35344101
 N   0.17681691   0.02403569  -0.25786210
 C  -0.31160732  -0.34442348   1.05572635
 C   0.59774448  -1.40463074   1.66884567
 O   0.55837196  -1.51997157   3.00837957
 O   1.29808314  -2.13153814   1.01585210
 C  -1.74474625  -0.88704865   0.99962471
 C  -2.72140236   0.07774295   0.39445891
 C  -3.37940988   0.07443743  -0.80346629
 N  -4.15506432   1.20955238  -0.94796249
 C  -3.97043301   1.89090086   0.15893439
 N  -3.11352897   1.25307644   1.00055832
 C   1.92472293   0.99131584  -1.63241673
 C   3.26496949   0.28644301  -1.39995682
 N   3.12214354  -1.17545678  -1.18575921
 H   0.26238515  -0.73583763  -0.91142452
 H  -0.25150040   0.56272908   1.65522949
 H  -0.03133619  -0.85479437   3.38157053
 H  -2.05656443  -1.16569331   2.00948416
 H  -1.75474879  -1.79756436   0.39930160
 H  -3.32711193  -0.68071201  -1.57623507
 H  -4.42188516   2.83491623   0.40908941
 H  -2.82052350   1.58385685   1.90622898
 H   2.11160987   2.02859006  -1.91379959
 H   1.37536536   0.49569030  -2.43590006
 H   3.74154912   0.73644498  -0.52456745
 H   3.92105879   0.46505324  -2.25448307
 H   4.03224895  -1.62419470  -1.05352623
 H   2.55444743  -1.40133350  -0.36187400
 H   2.67163726  -1.61148333  -1.99070175

