%mem=2gb
%nproc=4
%chk=conf-455.chk

B3LYP-D3(BJ)/6-31G(d,p) opt=calcfc freq=noraman nosymm integral(ultrafinegrid)

 Candidate Structure: Conf:455 OPT and FREQ calc in gas phase

0 1
 O   0.28007647  -0.25922667  -1.27943781
 C   0.94950091  -0.15887215  -0.24979773
 N   0.49370198  -0.52865427   0.97948650
 C  -0.61605158  -1.43415448   1.23982367
 C  -0.16578248  -2.89330656   1.09177237
 O  -1.01169662  -3.80859011   1.62215594
 O   0.85197729  -3.23587047   0.56269409
 C  -1.87573931  -1.18420639   0.39050897
 C  -2.39462695   0.20900240   0.52311899
 C  -3.31851374   0.77341554   1.35645570
 N  -3.40808116   2.13496465   1.12826026
 C  -2.54901063   2.37776752   0.16680213
 N  -1.91355853   1.25069526  -0.23434543
 C   2.35746068   0.42421785  -0.24030653
 C   2.66698742   1.25580087  -1.48472404
 N   3.99632276   1.85968709  -1.50810587
 H   1.17862068  -0.50481663   1.71546834
 H  -0.87804397  -1.28131638   2.29154205
 H  -1.75657940  -3.37408133   2.04375860
 H  -2.65134255  -1.87718564   0.72533501
 H  -1.66078945  -1.41998084  -0.64787442
 H  -3.92240264   0.28942601   2.11093487
 H  -2.33694779   3.33354016  -0.27858468
 H  -1.20225295   1.15598988  -0.94842929
 H   2.49241785   1.02513949   0.66613414
 H   3.07122712  -0.40887459  -0.17154745
 H   2.56078215   0.62306557  -2.36526259
 H   1.92789817   2.05322360  -1.57996600
 H   4.12506857   2.46199086  -0.70286649
 H   4.70928555   1.14110765  -1.45004803




