%mem=2gb
%nproc=4
%chk=conf-591.chk

# wB97XD/6-31G(d,p) opt=calcfc freq=noraman nosymm integral(ultrafinegrid)

 Candidate Structure: Conf:591 OPT and FREQ calc in gas phase

0 1
 O  -1.50958065  -0.24593626  -1.12071105
 C  -1.65440843  -0.21584519   0.09249740
 N  -0.59160284  -0.29726980   0.93484662
 C   0.76367521  -0.42520018   0.42429305
 C   1.58669061  -1.02445427   1.54155574
 O   2.31249998  -2.09562750   1.16820013
 O   1.59849706  -0.57963140   2.66283251
 C   1.31394218   0.95998024   0.02517276
 C   2.70026488   0.91407043  -0.52907287
 C   3.91779502   1.22596011   0.01077050
 N   4.93794383   0.98003326  -0.89232622
 C   4.33934619   0.52656534  -1.96961419
 N   2.98641001   0.46694918  -1.80144647
 C  -3.00268537  -0.05793322   0.77322503
 C  -4.17095394  -0.43485097  -0.12417895
 N  -5.42233697  -0.19907602   0.60083480
 H  -0.71096929  -0.23087808   1.93344738
 H   0.74551670  -1.08257085  -0.44412593
 H   2.80172433  -2.37165934   1.95518657
 H   1.31405581   1.59750362   0.90708349
 H   0.62279763   1.38590551  -0.69981413
 H   4.11160269   1.59980395   1.00793541
 H   4.81374383   0.23117918  -2.88829046
 H   2.31182709   0.15898906  -2.48368686
 H  -3.02321823  -0.65284225   1.69002250
 H  -3.11419664   0.98939596   1.07929294
 H  -4.11322812  -1.49734444  -0.37066788
 H  -4.08586523   0.12044538  -1.06646087
 H  -6.20557584  -0.54364204   0.05872095
 H  -5.57368997   0.79811886   0.70512003




