%mem=2gb
%nproc=4
chk=B3LYP_6-31Gd_150.chk

# B3LYP/6-31G(d)  opt=calcfc freq=noraman nosymm integral(ultrafinegrid)

Candidate Structure: Conf:150 OPT and FREQ calc in gas phase

0 1
 O  -1.06735217  -1.81841983  -0.60328983
 C  -1.26017113  -0.71113294  -0.11547544
 N  -0.37380669  -0.15490843   0.75102021
 C   0.74849115  -0.91194859   1.26098668
 C   1.24686362  -0.18699468   2.48905222
 O   2.24551888  -0.85446810   3.09517592
 O   0.81057498   0.86266890   2.89122693
 C   1.87855447  -1.12461555   0.22712916
 C   2.46417586   0.14328925  -0.29805206
 C   3.69731127   0.71644295  -0.15249985
 N   3.75634372   1.92770189  -0.81778155
 C   2.56761000   2.08131198  -1.35632410
 N   1.75200536   1.02999656  -1.06819574
 C  -2.47143855   0.14825121  -0.43244865
 C  -3.42445705  -0.50713672  -1.41910550
 N  -4.55073301   0.39606904  -1.66836835
 H  -0.59335767   0.68831685   1.26100626
 H   0.41775222  -1.90971166   1.56604327
 H   2.49526095  -0.33254751   3.86831060
 H   1.46214312  -1.72179041  -0.58553016
 H   2.66729937  -1.71113085   0.69929753
 H   4.54572431   0.32737766   0.39520370
 H   2.23722882   2.91305032  -1.95357755
 H   0.78257288   0.92701335  -1.32349017
 H  -2.13350962   1.11041330  -0.83234699
 H  -3.00619683   0.37498051   0.49757378
 H  -2.89970565  -0.67889416  -2.36095181
 H  -3.71838196  -1.49025012  -1.03226847
 H  -5.14058436   0.44322659  -0.84499846
 H  -5.13542473   0.02344859  -2.40678426

