%mem=2gb
%nproc=4
chk=B3LYP_6-311Gdp_273.chk

# B3LYP/6-311G(d,p)  guess=read geom=checkpoint opt=readfc freq=noraman nosymm integral(ultrafinegrid)

Candidate Structure: Conf:273 OPT and FREQ calc in gas phase

0 1

 O   0.48120243  -1.43972117   1.72308424
 C   0.87056904  -0.53628548   0.98254741
 N   0.37137582  -0.40016587  -0.26514002
 C  -0.75720908  -1.20762244  -0.73001204
 C  -0.28913572  -2.59703439  -1.19227926
 O   0.31533371  -3.31940117  -0.24345232
 O  -0.45011438  -3.01646343  -2.30615497
 C  -1.50720311  -0.49073579  -1.84649117
 C  -2.27544476   0.70244116  -1.37058924
 C  -2.84205171   1.05063319  -0.17757024
 N  -3.45652382   2.28666130  -0.27191509
 C  -3.26679199   2.67362250  -1.51052601
 N  -2.55969001   1.75405410  -2.21919197
 C   1.89393045   0.48386240   1.40872297
 C   2.97955959  -0.12216001   2.28608118
 N   3.89679956   0.93726391   2.71800004
 H   0.69070740   0.34962190  -0.85265449
 H  -1.42107538  -1.35942828   0.12341991
 H   0.33922963  -2.81473457   0.59778115
 H  -2.17871563  -1.20278916  -2.32839230
 H  -0.79593137  -0.19650938  -2.61834141
 H  -2.85110132   0.49832985   0.75013360
 H  -3.61408955   3.59393036  -1.94693731
 H  -2.28316406   1.82072030  -3.18403924
 H   2.33103083   0.96022975   0.52862127
 H   1.38124953   1.26431881   1.97735487
 H   2.50783659  -0.56404075   3.16509707
 H   3.48039626  -0.93330463   1.74249315
 H   4.56160772   0.56728100   3.38680814
 H   4.44737674   1.25772828   1.92957921

