%mem=2gb
%nproc=4
chk=B3LYP_6-311Gdp_118.chk

# B3LYP/6-311G(d,p)  guess=read geom=checkpoint opt=readfc freq=noraman nosymm integral(ultrafinegrid)

Candidate Structure: Conf:118 OPT and FREQ calc in gas phase

0 1

 O  -1.09191399  -1.49774376   1.89456649
 C  -1.13290120  -0.84888513   0.84816488
 N   0.00240440  -0.36345414   0.30113104
 C   1.31615863  -0.70183851   0.84221868
 C   1.64723824   0.13857715   2.08259602
 O   0.82949072  -0.05170695   3.11584641
 O   2.58035831   0.90365840   2.13872893
 C   2.38231901  -0.62065088  -0.26115391
 C   2.39815992   0.65456099  -1.03750651
 C   2.19552336   0.92086434  -2.36066330
 N   2.29483189   2.27750768  -2.60422354
 C   2.56318749   2.81404524  -1.43533880
 N   2.63863867   1.87573750  -0.46003622
 C  -2.41620558  -0.54901801   0.10388462
 C  -3.64785102  -1.14676078   0.78295385
 N  -4.91229243  -0.89687546   0.09820283
 H  -0.03659038   0.23312570  -0.50775927
 H   1.26051253  -1.73828392   1.18222364
 H   0.12995086  -0.69884520   2.87108726
 H   2.19392113  -1.44042106  -0.95928003
 H   3.35377024  -0.80864448   0.20316051
 H   1.97223910   0.21970843  -3.15328620
 H   2.71401834   3.85819972  -1.22876724
 H   2.81452063   2.00187522   0.52832534
 H  -2.32913545  -0.93079368  -0.92119550
 H  -2.52726931   0.53912622   0.01541632
 H  -3.51242613  -2.22390152   0.87785305
 H  -3.72173188  -0.75134415   1.79546092
 H  -5.07643592   0.09998033   0.01379609
 H  -4.88239420  -1.26779317  -0.84491816

