%mem=2gb
%nproc=4
chk=B3LYP_6-31Gdp_295.chk

# B3LYP/6-31G(d,p) EmpiricalDispersion=GD3BJ guess=read geom=checkpoint opt=readfc freq=noraman nosymm integral(ultrafinegrid)

Candidate Structure: Conf:295 OPT and FREQ calc in gas phase

0 1

 O   0.99868281   0.25392683  -1.30825036
 C   1.54102594  -0.41160079  -0.43426349
 N   0.88520801  -0.77622369   0.69038154
 C  -0.45718966  -0.27354901   0.92540807
 C  -0.73566218  -0.43996299   2.40347646
 O  -1.96334961   0.00394766   2.75480995
 O   0.03439048  -0.91686250   3.19447785
 C  -1.48971225  -0.99987431   0.02660204
 C  -2.56600633  -0.09592200  -0.47178541
 C  -2.94690628   0.23608203  -1.74047017
 N  -3.99656219   1.13825889  -1.71325842
 C  -4.23169987   1.34950385  -0.44114372
 N  -3.38666116   0.63370342   0.34865465
 C   2.98548632  -0.87191852  -0.53834263
 C   3.94272810   0.31628292  -0.57454743
 N   3.84995390   0.99938235  -1.86385774
 H   1.37441868  -1.15505773   1.48560972
 H  -0.45034459   0.79627346   0.68729781
 H  -2.03654660  -0.13336475   3.71170404
 H  -0.96322492  -1.38181030  -0.84587806
 H  -1.90081068  -1.86282371   0.55071900
 H  -2.53029511  -0.11750440  -2.67274773
 H  -4.98513323   1.99431321  -0.02580559
 H  -3.32972572   0.63030213   1.35461978
 H   3.21974872  -1.53326885   0.29868402
 H   3.09015469  -1.43984633  -1.46573829
 H   4.96530883  -0.05624986  -0.46241887
 H   3.74310784   0.97263141   0.28860403
 H   2.89882741   1.32085282  -2.00383579
 H   4.44080776   1.82038229  -1.85746406

