%mem=2gb
%nproc=4
chk=B3LYP_6-31+Gdp_422.chk

# B3LYP/6-31+G(d,p) EmpiricalDispersion=GD3BJ guess=read geom=checkpoint opt=readfc freq=noraman nosymm integral(ultrafinegrid)

Candidate Structure: Conf:422 OPT and FREQ calc in gas phase

0 1

 O   0.78587106   0.73522264   1.52986678
 C   1.13924031   0.16266085   0.50415451
 N   0.30311759  -0.64760054  -0.20788075
 C  -0.93595600  -1.13451069   0.35649269
 C  -0.81706571  -2.62349675   0.61379424
 O  -1.79679704  -3.06348925   1.42955734
 O   0.01443806  -3.34826754   0.13314100
 C  -2.14447407  -0.88747841  -0.55894206
 C  -2.45209745   0.57027939  -0.73405589
 C  -1.92297505   1.70746020  -0.19576412
 N  -2.57575057   2.83083541  -0.66942235
 C  -3.49190935   2.37230720  -1.48727811
 N  -3.46243839   1.01623805  -1.56355386
 C   2.50614739   0.36515293  -0.11941839
 C   3.56376324   0.75401682   0.90211897
 N   4.84349753   0.95240071   0.21659612
 H   0.71291375  -1.23241652  -0.92014784
 H  -1.09373391  -0.61786001   1.30257739
 H  -1.66123835  -4.01486461   1.51848917
 H  -3.01462609  -1.38628788  -0.12673532
 H  -1.97303077  -1.34888640  -1.53320168
 H  -1.09973583   1.76029677   0.50125855
 H  -4.19675100   2.96499214  -2.04442718
 H  -4.06565865   0.43409782  -2.11922788
 H   2.80637192  -0.54103098  -0.65153312
 H   2.42751354   1.16021927  -0.86519906
 H   3.59987104  -0.00613897   1.69242254
 H   3.26508359   1.69306492   1.37245037
 H   5.20433703   0.06050304  -0.10256498
 H   5.53209331   1.31249088   0.86643120

